p tw 20 58
1 2
1 13
1 16
1 17
1 5
1 6
1 7
1 9
2 14
2 16
2 4
2 6
2 9
2 10
14 16
14 17
3 12
3 13
3 20
3 5
3 7
4 19
4 20
4 5
4 9
4 10
5 11
5 15
5 16
5 6
5 7
5 10
6 11
6 12
6 13
6 14
6 15
6 16
6 19
6 20
6 7
7 12
7 15
7 20
8 12
8 18
8 19
8 20
9 11
9 12
9 16
9 18
9 19
9 20
10 11
10 14
10 19
10 20
